(set-info :smt-lib-version 2.6)
(set-logic QF_S)
(set-info :source |
Generated by: Murphy Berzish, Mitja Kulczynski, Federico Mora, Florin Manea, Joel Day, Dirk Nowotka, Vijay Ganesh, Zhengyang Lu
Generated on: 2020-10-01
Description: Translated from a collection of real-world regex queries, AutomataArk, collected by Loris D’Antoni and Fang Wang: https://github.com/lorisdanto/automatark
Application: Evaluate solvers on real-world regex queries
Target solver: Z3str3RE, CVC4, OSTRICH, Z3seq, Z3str3, Z3-Trau
Publications: Berzish, M., Kulczynski, M., Mora, F., Manea, F., Day, J. D., Nowotka, D., & Ganesh, V. (2021, July). An SMT solver for regular expressions and linear arithmetic over string length. In CAV 2021.
|)
(set-info :license "https://creativecommons.org/licenses/by/4.0/")
(set-info :category "industrial")
(set-info :status sat)

(declare-const X String)
(assert (not (str.in_re X (re.++ (str.to_re "/loginpost|") (re.+ (re.range "0" "9")) (str.to_re "|") (re.+ (re.range "0" "9")) (str.to_re "|") (re.+ (re.union (re.range "a" "z") (re.range "0" "9"))) (str.to_re ".") ((_ re.loop 2 3) (re.range "a" "z")) (str.to_re "|") (re.+ (re.union (re.range "a" "z") (re.range "0" "9"))) (str.to_re "|/\u{a}")))))
(assert (not (str.in_re X (re.++ (str.to_re "01") ((_ re.loop 8 8) (re.range "0" "9")) (str.to_re "\u{a}")))))
(assert (not (str.in_re X (re.++ (re.union (re.++ (str.to_re "/*") (re.+ (re.union (re.comp (re.union (str.to_re " ") (str.to_re "\u{9}") (str.to_re "\u{a}") (str.to_re "\u{c}") (str.to_re "\u{d}"))) (str.to_re ".") (str.to_re " ") (str.to_re "\u{9}") (str.to_re "\u{a}") (str.to_re "\u{c}") (str.to_re "\u{d}"))) (str.to_re "*/")) (re.++ (re.* re.allchar) ((_ re.loop 2 2) (str.to_re "/")) (re.* (str.to_re "/"))) (re.++ (str.to_re "/") (re.* (re.union (str.to_re "\u{5c}/") (re.opt re.allchar))) (str.to_re "/") ((_ re.loop 0 3) (re.union (str.to_re "g") (str.to_re "i") (str.to_re "m")))) (re.++ (str.to_re "'") (re.* (re.union (str.to_re "\u{5c}'") (re.opt re.allchar))) (str.to_re "'")) (re.++ (str.to_re "\u{22}") (re.* (re.union (str.to_re "\u{5c}\u{22}") (re.opt re.allchar))) (str.to_re "\u{22}")) (re.++ (re.opt (str.to_re "-")) (re.+ (re.range "0" "9")) (str.to_re ".") (re.+ (re.range "0" "9")) (re.opt (str.to_re "e")) (re.opt (str.to_re "-")) (re.opt (str.to_re "e")) (re.* (re.range "0" "9"))) (re.++ (re.opt (str.to_re "-")) (str.to_re ".") (re.+ (re.range "0" "9")) (str.to_re "e") (re.opt (str.to_re "-")) (re.+ (re.range "0" "9"))) (re.+ (re.union (re.range "0" "9") (re.range "A" "Z") (re.range "a" "z") (str.to_re "_"))) (str.to_re "[") (str.to_re "]") (str.to_re "(") (str.to_re ")") (str.to_re "{") (str.to_re "}") (str.to_re ":") (str.to_re "=") (str.to_re ";") (str.to_re "\u{22}") (str.to_re "'") (str.to_re "-") (str.to_re "&") (str.to_re "!") (str.to_re "|") (str.to_re "+") (str.to_re ",") (str.to_re ".") (str.to_re "/") (str.to_re "*")) (str.to_re "\u{a}")))))
(assert (not (str.in_re X (re.union (re.++ ((_ re.loop 11 18) (re.range "0" "9")) (str.to_re "5") (re.union (str.to_re "0") (str.to_re "6") (str.to_re "7") (str.to_re "8"))) (re.++ ((_ re.loop 11 18) (re.range "0" "9")) (str.to_re "6") (re.union (str.to_re "0") (str.to_re "5"))) (re.++ (str.to_re "601") (re.comp (str.to_re "1")) ((_ re.loop 9 16) (re.range "0" "9"))) (re.++ (str.to_re "6011") ((_ re.loop 9 11) (re.range "0" "9"))) (re.++ (str.to_re "6011") ((_ re.loop 13 16) (re.range "0" "9"))) (re.++ (str.to_re "65") ((_ re.loop 11 13) (re.range "0" "9"))) (re.++ (str.to_re "65") ((_ re.loop 15 18) (re.range "0" "9"))) (re.++ (str.to_re "49030") (re.range "2" "9") (re.union ((_ re.loop 10 10) (re.range "0" "9")) ((_ re.loop 12 13) (re.range "0" "9")))) (re.++ (str.to_re "49033") (re.range "5" "9") (re.union ((_ re.loop 10 10) (re.range "0" "9")) ((_ re.loop 12 13) (re.range "0" "9")))) (re.++ (str.to_re "49110") (re.range "1" "2") (re.union ((_ re.loop 10 10) (re.range "0" "9")) ((_ re.loop 12 13) (re.range "0" "9")))) (re.++ (str.to_re "49117") (re.range "4" "9") (re.union ((_ re.loop 10 10) (re.range "0" "9")) ((_ re.loop 12 13) (re.range "0" "9")))) (re.++ (str.to_re "49118") (re.range "0" "2") (re.union ((_ re.loop 10 10) (re.range "0" "9")) ((_ re.loop 12 13) (re.range "0" "9")))) (re.++ (str.to_re "\u{a}4936") (re.union ((_ re.loop 12 12) (re.range "0" "9")) ((_ re.loop 14 15) (re.range "0" "9"))))))))
(check-sat)

(exit)
